x_1
x_2
x_3
x_4
x_5
x_6
x_7
x_8
x_9
x_10
x_11
x_12
x_13
x_14
x_15
x_2 x_1
x_3 x_2
x_4 x_1
x_4 x_2
x_5 x_1
x_5 x_4
x_6 x_1
x_6 x_4
x_7 x_1
x_7 x_2
x_7 x_6
x_8 x_4
x_8 x_5
x_8 x_7
x_9 x_1
x_9 x_3
x_9 x_5
x_9 x_6
x_10 x_1
x_10 x_2
x_10 x_3
x_10 x_4
x_11 x_1
x_11 x_6
x_11 x_10
x_12 x_3
x_12 x_4
x_12 x_5
x_12 x_6
x_12 x_7
x_12 x_11
x_13 x_1
x_13 x_2
x_13 x_3
x_13 x_5
x_13 x_6
x_13 x_7
x_13 x_12
x_14 x_1
x_14 x_2
x_14 x_4
x_14 x_8
x_14 x_9
x_14 x_10
x_14 x_13
x_15 x_3
x_15 x_5
x_15 x_6
x_15 x_8
x_15 x_9
x_15 x_10
x_15 x_13
x_15 x_14
